SECTION Graph
Nodes 1343
Edges 2594
E 1 1249 1
E 1 1250 1
E 2 3 2
E 2 1251 2
E 3 1252 2
E 4 5 5
E 4 34 1
E 4 978 1
E 4 994 2
E 5 35 1
E 5 1024 1
E 5 1030 2
E 6 1058 1
E 6 1059 1
E 7 14 55
E 7 1003 5
E 7 1040 1
E 7 1052 5
E 8 1042 5
E 8 1057 1
E 8 1078 5
E 8 1188 57
E 9 10 2
E 9 40 1
E 9 728 1
E 9 737 2
E 10 41 1
E 10 740 1
E 10 745 2
E 11 12 2
E 11 773 1
E 11 774 1
E 12 779 1
E 12 786 1
E 13 19 3
E 13 742 5
E 13 760 1
E 13 771 5
E 14 756 5
E 14 765 1
E 14 782 5
E 15 16 1
E 15 30 12
E 15 45 1
E 15 706 2
E 16 46 1
E 16 711 2
E 16 712 2
E 17 758 1
E 17 759 1
E 17 766 2
E 18 244 12
E 18 718 5
E 18 743 1
E 18 757 5
E 19 731 5
E 19 743 2
E 19 762 5
E 20 50 5
E 20 1227 10
E 20 1237 1
E 20 1243 6
E 21 23 10
E 21 1239 10
E 21 1251 6
E 22 1227 1
E 22 1228 1
E 22 1230 1
E 22 1237 10
E 23 24 5
E 23 1230 10
E 24 25 5
E 24 1220 10
E 25 26 1
E 25 1209 10
E 26 27 1
E 26 1204 10
E 27 29 8
E 27 1201 10
E 28 1042 57
E 28 1170 1
E 28 1178 1
E 28 1188 5
E 29 1191 5
E 29 1205 1
E 30 63 1
E 30 241 2
E 31 247 1
E 32 33 5
E 32 859 5
E 32 875 1
E 32 886 1
E 33 856 11
E 33 920 1
E 33 1122 58
E 34 35 5
E 34 968 2
E 34 973 1
E 35 993 2
E 35 1016 1
E 36 43 55
E 36 880 5
E 36 921 1
E 36 942 5
E 37 928 5
E 37 949 1
E 37 985 5
E 37 1135 57
E 38 39 2
E 38 668 1
E 38 669 1
E 38 672 1
E 39 675 1
E 39 676 1
E 40 41 2
E 40 716 2
E 40 722 1
E 41 727 2
E 41 736 1
E 42 48 3
E 42 670 5
E 42 689 1
E 42 701 5
E 43 680 5
E 43 696 1
E 43 720 5
E 44 638 1
E 44 639 1
E 44 649 1
E 44 654 2
E 45 46 1
E 45 63 12
E 45 691 2
E 46 694 2
E 46 705 2
E 47 251 12
E 47 644 5
E 47 671 1
E 47 681 5
E 48 661 5
E 48 671 2
E 48 693 5
E 49 51 10
E 49 1224 6
E 49 1231 10
E 50 1215 10
E 50 1232 1
E 50 1236 6
E 51 1171 2
E 51 1175 1
E 51 1210 10
E 52 1210 1
E 52 1211 1
E 52 1215 1
E 52 1232 10
E 53 54 2
E 53 1171 16
E 53 1224 2
E 54 1229 2
E 55 1235 1
E 55 1240 1
E 56 61 8
E 56 1095 18
E 56 1127 1
E 56 1139 5
E 57 1135 5
E 57 1148 2
E 57 1154 1
E 57 1155 1
E 58 59 5
E 58 1116 18
E 58 1168 2
E 58 1192 10
E 59 60 1
E 59 1108 18
E 59 1179 10
E 60 61 1
E 60 1150 1
E 60 1176 10
E 61 1147 1
E 61 1173 10
E 62 75 1
E 62 248 1
E 62 629 12
E 63 254 2
E 64 78 1
E 64 563 1
E 64 568 2
E 64 572 3
E 65 79 1
E 65 568 3
E 65 588 1
E 65 595 3
E 66 255 2
E 66 619 1
E 66 620 1
E 66 628 2
E 67 255 3
E 67 636 1
E 67 647 1
E 67 653 2
E 68 257 12
E 68 569 6
E 68 600 1
E 68 615 5
E 69 599 6
E 69 618 1
E 69 642 5
E 69 834 59
E 70 83 7
E 70 1126 1
E 70 1131 1
E 70 1143 6
E 71 1143 5
E 71 1153 1
E 71 1158 1
E 71 1165 5
E 72 1117 8
E 72 1126 6
E 72 1143 1
E 72 1153 5
E 73 1131 6
E 73 1143 1
E 73 1158 5
E 74 256 3
E 74 505 1
E 74 560 11
E 75 259 2
E 75 625 12
E 76 481 6
E 76 502 1
E 76 504 2
E 76 524 6
E 77 504 3
E 77 547 6
E 77 755 60
E 78 260 2
E 78 524 9
E 78 559 1
E 79 260 3
E 79 547 9
E 79 581 1
E 80 502 6
E 80 514 1
E 80 524 1
E 80 559 9
E 81 547 1
E 81 581 9
E 81 770 59
E 82 1085 7
E 82 1093 1
E 82 1096 1
E 82 1101 5
E 83 1101 6
E 83 1107 1
E 83 1109 1
E 84 1092 8
E 84 1093 5
E 84 1101 1
E 84 1107 6
E 85 1096 5
E 85 1101 1
E 85 1109 6
E 86 87 1
E 86 113 3
E 86 898 2
E 86 918 1
E 87 114 3
E 87 926 1
E 87 932 2
E 88 981 1
E 88 1023 5
E 88 1089 24
E 89 90 10
E 89 1063 8
E 89 1080 1
E 90 1088 8
E 91 1021 2
E 91 1022 2
E 91 1037 1
E 91 1047 4
E 92 94 2
E 92 1037 10
E 92 1077 1
E 92 1083 4
E 93 94 10
E 93 95 1
E 93 1022 1
E 93 1037 2
E 94 96 1
E 94 1073 1
E 95 96 10
E 95 1013 1
E 95 1014 1
E 96 1064 1
E 96 1070 1
E 97 110 3
E 97 935 1
E 97 946 1
E 97 984 7
E 98 959 10
E 98 1015 1
E 98 1029 1
E 98 1095 25
E 99 100 10
E 99 101 1
E 99 870 2
E 99 919 6
E 100 102 1
E 100 981 6
E 100 1075 25
E 101 102 10
E 101 867 2
E 101 871 1
E 102 104 1
E 102 1074 25
E 103 855 1
E 103 862 1
E 103 1099 55
E 104 871 10
E 104 1072 25
E 105 120 7
E 105 417 1
E 105 428 1
E 105 451 6
E 106 451 5
E 106 468 1
E 106 481 1
E 106 502 6
E 107 417 6
E 107 451 1
E 107 468 5
E 108 428 6
E 108 451 1
E 108 481 5
E 108 708 65
E 109 843 1
E 109 844 1
E 109 853 1
E 109 896 10
E 110 916 1
E 110 917 1
E 110 972 7
E 111 801 6
E 111 802 6
E 111 826 1
E 111 827 2
E 112 810 6
E 112 827 1
E 112 836 1
E 112 839 2
E 113 114 1
E 113 879 2
E 113 885 1
E 114 891 1
E 114 911 2
E 115 134 1
E 115 796 1
E 115 797 1
E 115 833 10
E 116 828 2
E 116 841 1
E 116 842 1
E 117 128 2
E 117 908 1
E 117 931 2
E 117 979 10
E 118 975 2
E 118 979 1
E 118 997 2
E 118 1011 4
E 119 383 6
E 119 388 1
E 119 391 1
E 119 396 5
E 120 396 6
E 120 401 1
E 120 404 1
E 121 388 5
E 121 396 1
E 121 401 6
E 122 391 5
E 122 396 1
E 122 404 6
E 122 635 65
E 123 1066 3
E 124 125 10
E 124 1066 1
E 124 1067 1
E 125 1087 2
E 126 127 10
E 126 965 7
E 126 996 1
E 126 1025 3
E 127 1026 7
E 127 1062 1
E 127 1069 3
E 128 129 10
E 128 130 1
E 128 895 1
E 129 131 1
E 129 975 1
E 129 979 2
E 130 131 10
E 130 888 1
E 130 889 1
E 131 956 1
E 131 971 1
E 132 133 10
E 132 134 1
E 132 802 1
E 132 826 6
E 133 135 1
E 133 845 1
E 133 865 6
E 134 135 10
E 134 799 1
E 135 833 1
E 135 840 1
E 136 969 1
E 136 970 1
E 136 1035 10
E 137 138 2
E 137 988 6
E 137 1017 2
E 137 1045 4
E 138 1031 2
E 138 1043 1
E 138 1053 4
E 139 140 5
E 139 164 1
E 139 534 1
E 139 546 2
E 140 165 1
E 140 562 1
E 140 564 2
E 141 142 5
E 141 591 1
E 141 592 1
E 141 617 6
E 142 612 1
E 142 767 41
E 143 150 55
E 143 543 7
E 143 567 1
E 143 587 5
E 144 565 7
E 144 590 1
E 145 146 2
E 145 170 1
E 145 369 1
E 145 374 2
E 146 171 1
E 146 376 1
E 146 378 2
E 147 148 2
E 147 389 1
E 147 390 1
E 148 393 1
E 148 395 1
E 149 371 7
E 149 377 5
E 149 384 1
E 149 387 5
E 150 379 7
E 150 386 1
E 150 394 5
E 151 175 5
E 151 881 3
E 151 906 1
E 151 938 6
E 152 914 10
E 152 964 3
E 152 988 2
E 152 1017 6
E 153 835 5
E 153 852 1
E 153 860 1
E 153 887 7
E 154 155 5
E 154 860 10
E 154 930 2
E 154 964 7
E 155 838 10
E 155 872 2
E 155 894 2
E 156 157 1
E 156 822 10
E 156 864 1
E 156 888 6
E 157 158 1
E 157 819 10
E 157 882 6
E 158 815 10
E 158 825 7
E 158 876 6
E 159 776 2
E 159 777 2
E 159 789 1
E 159 820 10
E 160 789 10
E 160 820 1
E 160 825 1
E 160 843 6
E 161 355 2
E 161 361 1
E 161 372 7
E 162 375 5
E 162 380 1
E 162 382 1
E 162 383 1
E 163 450 5
E 163 467 1
E 163 480 1
E 163 496 5
E 164 165 5
E 164 523 2
E 164 528 1
E 165 545 2
E 165 558 1
E 166 173 55
E 166 474 5
E 166 501 1
E 166 509 5
E 167 503 5
E 167 512 1
E 167 542 5
E 168 169 2
E 168 335 5
E 168 341 1
E 168 345 1
E 169 338 5
E 169 346 1
E 169 347 1
E 170 171 2
E 170 365 2
E 170 367 1
E 171 368 2
E 171 373 1
E 172 343 5
E 172 344 5
E 172 349 1
E 172 358 5
E 173 348 5
E 173 353 1
E 173 366 5
E 174 178 10
E 174 848 6
E 174 863 10
E 175 830 10
E 175 868 1
E 175 905 6
E 176 331 1
E 176 332 1
E 176 342 5
E 176 343 6
E 177 340 7
E 177 350 1
E 177 352 2
E 178 185 5
E 178 823 10
E 179 807 5
E 179 823 1
E 179 830 1
E 179 868 10
E 180 181 2
E 180 848 2
E 181 857 2
E 182 904 1
E 182 922 1
E 183 700 6
E 183 725 1
E 183 732 1
E 183 761 10
E 184 719 11
E 184 725 10
E 184 761 1
E 184 776 7
E 185 186 5
E 185 804 10
E 186 187 1
E 186 790 10
E 187 188 1
E 187 787 10
E 188 732 7
E 188 783 10
E 189 261 1
E 189 548 12
E 189 579 3
E 189 596 1
E 190 261 1
E 190 265 3
E 190 605 1
E 190 645 11
E 191 192 1
E 191 651 1
E 191 652 1
E 191 674 6
E 192 657 1
E 192 678 6
E 192 698 11
E 193 262 1
E 193 487 13
E 193 522 3
E 193 541 1
E 194 262 1
E 194 266 3
E 194 548 1
E 194 549 1
E 195 196 1
E 195 538 15
E 195 589 1
E 195 616 6
E 196 593 1
E 196 603 1
E 196 621 6
E 197 263 1
E 197 275 1
E 197 301 9
E 198 263 1
E 198 264 1
E 198 283 1
E 198 289 3
E 199 301 6
E 199 312 1
E 200 311 1
E 200 312 1
E 200 317 1
E 201 301 1
E 202 294 5
E 202 304 1
E 202 305 1
E 202 314 5
E 203 605 11
E 203 645 1
E 203 656 1
E 203 662 2
E 204 206 12
E 204 655 1
E 204 656 1
E 205 206 1
E 205 656 12
E 205 695 1
E 205 700 1
E 206 702 1
E 207 491 1
E 207 492 1
E 207 498 1
E 207 532 10
E 208 492 10
E 208 507 4
E 208 532 1
E 208 533 1
E 209 210 10
E 209 449 4
E 209 463 1
E 209 473 1
E 210 494 4
E 210 507 1
E 210 508 1
E 211 212 10
E 211 213 1
E 211 440 1
E 211 449 1
E 212 214 1
E 212 494 1
E 212 495 1
E 213 436 1
E 213 437 1
E 213 464 5
E 214 216 1
E 214 464 5
E 214 575 24
E 215 402 8
E 215 421 2
E 215 436 1
E 215 437 1
E 216 444 8
E 216 459 5
E 216 479 3
E 216 571 24
E 217 267 1
E 218 263 1
E 218 264 1
E 218 269 9
E 218 275 1
E 219 264 1
E 219 274 3
E 219 282 1
E 219 283 1
E 220 269 1
E 220 275 9
E 221 268 5
E 221 271 1
E 221 273 5
E 221 397 76
E 222 529 1
E 222 540 1
E 223 261 3
E 223 265 1
E 223 578 1
E 223 579 1
E 224 225 1
E 224 482 1
E 225 486 1
E 225 525 12
E 226 262 3
E 226 266 1
E 226 521 1
E 226 522 1
E 227 266 1
E 227 531 1
E 227 548 3
E 227 579 12
E 228 583 1
E 228 633 12
E 229 583 12
E 229 626 1
E 229 633 1
E 229 634 1
E 230 238 1
E 230 392 1
E 230 398 5
E 231 405 1
E 231 406 1
E 231 408 1
E 231 412 2
E 232 234 5
E 232 410 1
E 232 452 10
E 233 410 10
E 233 452 1
E 233 460 1
E 233 506 13
E 234 235 10
E 234 399 1
E 235 423 1
E 235 433 1
E 235 446 4
E 236 237 10
E 236 238 1
E 236 399 4
E 237 239 1
E 237 411 1
E 237 423 4
E 238 400 5
E 239 400 5
E 239 405 1
E 239 408 1
E 240 505 42
E 241 242 1
E 241 706 12
E 242 243 1
E 242 713 12
E 243 244 5
E 243 718 12
E 244 245 5
E 245 246 1
E 245 757 12
E 246 247 1
E 246 759 12
E 248 249 1
E 248 632 12
E 249 250 1
E 249 639 12
E 250 251 5
E 250 640 11
E 251 252 5
E 252 253 1
E 252 677 11
E 253 254 1
E 253 682 11
E 254 686 11
E 255 624 1
E 255 637 2
E 256 257 6
E 256 566 11
E 257 258 5
E 258 259 1
E 258 615 12
E 259 620 12
E 260 535 9
E 260 568 1
E 261 601 1
E 262 544 1
E 263 286 3
E 264 270 9
E 265 584 1
E 265 630 11
E 266 527 1
E 267 268 1
E 267 271 5
E 268 392 76
E 269 270 1
E 270 271 1
E 271 272 5
E 272 273 1
E 272 274 1
E 273 276 1
E 273 277 1
E 274 277 1
E 276 278 1
E 276 279 1
E 277 279 1
E 277 281 2
E 278 280 1
E 278 295 7
E 279 280 1
E 279 284 3
E 280 287 3
E 280 298 7
E 281 282 1
E 281 409 76
E 282 284 1
E 282 285 1
E 283 285 1
E 283 291 3
E 284 287 1
E 284 288 1
E 285 288 1
E 285 293 3
E 286 289 1
E 286 303 6
E 287 290 1
E 287 413 74
E 288 290 1
E 288 296 3
E 289 291 1
E 289 292 1
E 290 299 3
E 290 416 74
E 291 293 1
E 291 294 1
E 292 294 1
E 292 304 5
E 293 296 1
E 293 297 1
E 294 297 1
E 295 298 1
E 295 405 68
E 296 299 1
E 296 300 1
E 297 300 1
E 297 305 5
E 298 309 7
E 298 406 67
E 299 302 1
E 299 307 6
E 300 302 1
E 300 306 5
E 301 303 1
E 302 308 5
E 302 310 6
E 303 304 1
E 303 312 6
E 304 311 5
E 305 306 1
E 305 316 5
E 306 308 1
E 306 320 5
E 307 309 1
E 307 310 1
E 308 323 5
E 308 325 6
E 309 313 1
E 309 315 2
E 310 313 1
E 310 325 5
E 311 314 1
E 313 319 2
E 313 327 5
E 314 316 1
E 314 317 1
E 315 318 1
E 315 319 1
E 316 320 1
E 316 321 1
E 317 321 1
E 318 322 1
E 318 402 56
E 319 322 1
E 319 328 5
E 320 323 1
E 320 324 1
E 321 324 1
E 322 337 10
E 322 403 55
E 323 326 1
E 323 330 6
E 324 326 1
E 324 329 5
E 325 327 1
E 325 330 5
E 326 331 5
E 326 334 6
E 327 328 2
E 327 333 5
E 328 336 5
E 328 422 57
E 329 331 1
E 329 332 1
E 330 333 1
E 330 334 1
E 331 341 6
E 332 340 5
E 333 335 1
E 333 336 2
E 334 335 1
E 334 341 5
E 335 338 2
E 336 337 1
E 336 338 1
E 337 339 1
E 337 444 56
E 338 339 1
E 339 346 5
E 339 445 55
E 340 342 1
E 341 343 1
E 342 344 1
E 342 350 7
E 343 345 1
E 344 351 7
E 345 347 2
E 345 349 5
E 346 348 1
E 346 467 55
E 347 348 1
E 347 353 5
E 348 474 55
E 349 353 2
E 349 360 5
E 350 351 1
E 350 354 2
E 351 356 2
E 351 362 5
E 352 354 1
E 352 355 1
E 353 364 5
E 354 356 1
E 354 357 1
E 355 357 1
E 356 359 1
E 356 367 5
E 357 359 1
E 357 361 2
E 358 360 1
E 358 362 2
E 359 363 2
E 359 369 5
E 360 364 2
E 360 365 2
E 361 363 1
E 361 375 7
E 362 365 1
E 362 367 2
E 363 371 5
E 363 377 7
E 364 366 1
E 364 368 2
E 365 368 2
E 366 370 2
E 366 509 55
E 367 369 1
E 368 370 1
E 369 371 2
E 370 373 2
E 370 518 55
E 371 374 1
E 372 375 1
E 372 380 5
E 373 376 1
E 373 528 55
E 374 378 2
E 374 384 7
E 375 377 1
E 376 379 2
E 376 534 55
E 377 382 5
E 378 379 1
E 378 386 7
E 379 543 55
E 380 381 1
E 381 383 1
E 381 388 6
E 382 385 1
E 382 387 5
E 383 385 1
E 384 386 2
E 384 389 5
E 385 390 5
E 385 391 6
E 386 393 5
E 387 389 1
E 387 390 1
E 389 393 2
E 391 617 65
E 392 397 5
E 393 394 1
E 394 395 1
E 394 587 55
E 395 592 55
E 397 398 1
E 397 406 6
E 398 400 1
E 398 405 5
E 399 423 10
E 401 417 7
E 402 407 1
E 403 407 1
E 403 445 11
E 404 428 7
E 404 667 65
E 406 409 2
E 407 422 5
E 407 427 6
E 408 411 1
E 408 414 2
E 409 412 1
E 409 413 1
E 410 469 13
E 411 418 2
E 411 429 4
E 412 414 1
E 412 415 1
E 413 415 1
E 413 416 1
E 414 418 1
E 414 419 1
E 415 419 1
E 415 420 1
E 416 420 1
E 416 421 1
E 418 424 1
E 418 438 4
E 419 424 1
E 419 425 1
E 420 425 1
E 420 426 1
E 421 426 1
E 422 444 5
E 422 459 8
E 423 429 1
E 424 430 1
E 424 442 4
E 425 430 1
E 425 431 1
E 426 431 1
E 426 432 1
E 427 437 2
E 427 479 11
E 428 688 65
E 429 433 1
E 429 438 2
E 430 434 1
E 430 448 4
E 431 434 1
E 431 435 1
E 432 435 1
E 432 436 1
E 433 441 2
E 433 453 4
E 434 439 1
E 434 455 4
E 435 439 1
E 435 440 1
E 436 440 1
E 437 459 5
E 438 441 1
E 438 442 1
E 439 443 1
E 439 458 4
E 440 443 1
E 441 447 1
E 441 461 4
E 442 447 1
E 442 448 1
E 443 449 1
E 443 463 4
E 444 450 1
E 445 450 1
E 445 467 5
E 446 452 1
E 446 453 1
E 447 454 1
E 447 471 5
E 448 454 1
E 448 455 1
E 449 494 10
E 450 479 6
E 452 456 1
E 453 456 1
E 453 461 2
E 454 457 1
E 454 472 4
E 455 457 1
E 455 458 1
E 456 460 1
E 456 465 2
E 457 462 1
E 457 478 4
E 458 462 1
E 458 463 1
E 459 464 1
E 460 470 2
E 460 511 13
E 461 465 1
E 461 472 2
E 462 466 1
E 462 485 4
E 463 466 1
E 465 470 1
E 465 471 1
E 466 473 1
E 466 489 4
E 467 474 1
E 468 497 6
E 469 475 1
E 469 506 10
E 470 476 1
E 470 522 13
E 471 476 1
E 471 477 1
E 472 477 1
E 472 478 1
E 473 492 4
E 473 507 10
E 474 480 1
E 475 482 1
E 475 510 10
E 476 483 1
E 477 483 1
E 477 484 1
E 478 484 1
E 478 485 1
E 479 495 4
E 479 499 5
E 480 500 5
E 480 501 5
E 481 733 65
E 482 486 1
E 482 515 10
E 483 487 1
E 484 487 1
E 484 488 1
E 485 488 1
E 485 489 1
E 486 519 10
E 486 530 12
E 487 490 1
E 488 490 1
E 488 491 1
E 489 491 1
E 489 492 1
E 490 493 1
E 490 541 13
E 491 493 1
E 493 498 1
E 493 550 14
E 495 508 5
E 495 580 23
E 496 499 1
E 496 500 1
E 497 502 1
E 497 514 6
E 498 537 10
E 498 551 13
E 499 503 1
E 500 503 1
E 500 512 5
E 501 512 5
E 501 513 5
E 503 614 29
E 504 535 6
E 505 556 11
E 506 510 1
E 506 511 1
E 508 533 5
E 508 604 23
E 509 513 1
E 509 518 2
E 510 515 1
E 510 516 1
E 511 516 1
E 511 517 1
E 512 539 5
E 513 523 2
E 513 539 5
E 514 556 9
E 515 519 1
E 515 520 1
E 516 520 1
E 516 521 1
E 517 521 1
E 517 522 1
E 518 523 1
E 518 528 2
E 519 526 1
E 519 573 14
E 520 526 1
E 520 527 1
E 521 527 1
E 523 545 5
E 524 535 2
E 525 529 1
E 525 530 1
E 526 531 1
E 526 570 12
E 527 531 1
E 528 534 1
E 529 536 1
E 530 536 1
E 530 570 11
E 531 574 12
E 532 537 1
E 532 538 1
E 533 538 1
E 533 594 16
E 534 543 2
E 535 547 3
E 536 540 1
E 536 578 12
E 537 585 13
E 538 598 16
E 539 542 1
E 539 545 2
E 540 573 10
E 540 576 11
E 541 544 1
E 541 551 2
E 542 552 2
E 542 594 14
E 543 546 1
E 544 549 1
E 544 550 1
E 545 552 1
E 546 564 5
E 546 567 7
E 548 553 1
E 549 553 1
E 549 554 1
E 550 554 1
E 550 555 1
E 551 555 1
E 551 585 10
E 552 558 2
E 553 561 2
E 553 596 12
E 554 557 1
E 554 602 13
E 555 557 1
E 555 589 10
E 556 559 1
E 556 560 1
E 557 561 1
E 557 593 10
E 558 562 1
E 559 563 1
E 560 563 1
E 560 566 3
E 561 597 10
E 561 607 12
E 562 565 2
E 563 569 3
E 564 565 1
E 564 590 7
E 565 571 2
E 566 569 1
E 566 640 18
E 567 590 5
E 567 591 5
E 568 582 3
E 569 572 1
E 570 574 1
E 570 577 2
E 571 575 1
E 572 582 2
E 572 600 6
E 573 577 1
E 574 578 1
E 574 579 1
E 575 580 1
E 576 583 1
E 576 626 12
E 577 584 1
E 578 584 1
E 580 586 1
E 581 588 1
E 581 800 59
E 582 595 3
E 582 609 6
E 584 626 11
E 585 589 1
E 585 614 7
E 586 604 4
E 587 591 1
E 587 592 1
E 588 599 3
E 588 803 59
E 589 593 1
E 590 612 5
E 591 612 5
E 593 597 1
E 594 598 1
E 594 622 7
E 595 599 1
E 595 618 6
E 596 601 1
E 596 602 1
E 597 603 1
E 597 646 12
E 598 623 7
E 598 658 14
E 599 811 59
E 600 609 2
E 600 619 5
E 601 605 1
E 601 606 1
E 602 606 1
E 602 607 1
E 603 652 12
E 603 692 23
E 604 608 1
E 605 610 1
E 606 610 1
E 606 611 1
E 607 611 1
E 607 646 10
E 608 622 4
E 609 618 3
E 609 624 5
E 610 613 1
E 611 613 1
E 611 651 10
E 613 657 10
E 613 662 11
E 614 616 1
E 614 658 10
E 615 619 1
E 615 620 1
E 616 621 1
E 616 663 10
E 617 635 5
E 618 636 5
E 619 624 2
E 620 625 2
E 621 666 10
E 621 673 13
E 622 623 1
E 623 627 1
E 624 636 3
E 625 628 1
E 625 629 1
E 626 630 1
E 627 679 13
E 628 631 1
E 628 637 2
E 629 631 1
E 629 632 1
E 630 634 1
E 630 645 3
E 631 638 1
E 631 643 2
E 632 638 1
E 632 639 1
E 633 641 1
E 634 641 1
E 634 650 3
E 635 667 6
E 636 642 1
E 637 643 1
E 637 653 3
E 638 648 2
E 639 644 1
E 640 644 1
E 640 677 10
E 641 655 3
E 642 647 1
E 643 648 1
E 643 660 3
E 644 649 1
E 645 650 1
E 646 651 1
E 646 652 1
E 647 659 2
E 647 859 59
E 648 654 1
E 648 665 3
E 649 661 2
E 649 671 5
E 650 655 1
E 650 656 1
E 651 657 1
E 652 673 6
E 653 659 1
E 653 660 1
E 654 661 1
E 654 669 3
E 657 695 11
E 658 663 1
E 658 679 7
E 659 664 1
E 660 664 1
E 660 665 1
E 661 670 3
E 662 695 10
E 663 666 1
E 663 683 7
E 664 668 1
E 665 668 1
E 665 669 1
E 666 687 7
E 666 707 13
E 667 688 7
E 669 670 1
E 670 672 1
E 671 684 5
E 672 676 2
E 672 689 5
E 673 674 1
E 673 707 10
E 674 678 1
E 674 714 10
E 675 680 1
E 675 875 55
E 676 680 1
E 676 696 5
E 677 681 1
E 677 682 1
E 678 719 10
E 678 725 11
E 679 683 1
E 680 880 55
E 681 684 1
E 681 685 1
E 682 685 1
E 682 686 1
E 683 687 1
E 684 690 1
E 684 693 2
E 685 690 1
E 685 691 1
E 686 691 1
E 687 692 1
E 688 708 6
E 689 696 2
E 689 703 5
E 690 694 1
E 690 697 2
E 691 694 1
E 692 735 11
E 693 697 1
E 693 701 3
E 694 699 2
E 695 698 1
E 696 715 5
E 697 699 1
E 697 704 3
E 698 700 1
E 698 725 6
E 699 705 2
E 699 710 3
E 700 702 1
E 701 703 1
E 701 704 1
E 702 732 6
E 703 709 1
E 703 715 2
E 704 709 1
E 704 710 1
E 705 711 1
E 705 722 3
E 706 712 1
E 706 713 1
E 707 714 1
E 707 739 7
E 708 733 5
E 709 716 1
E 709 721 2
E 710 716 1
E 710 722 2
E 711 723 2
E 711 728 3
E 712 717 1
E 712 723 2
E 713 717 1
E 713 718 1
E 714 719 1
E 714 744 7
E 715 720 1
E 715 721 1
E 716 727 2
E 717 724 1
E 717 729 2
E 718 724 1
E 719 747 7
E 720 726 1
E 720 942 55
E 721 726 1
E 721 727 1
E 722 728 1
E 723 729 1
E 723 734 3
E 724 731 2
E 724 743 5
E 726 730 1
E 726 951 55
E 727 730 1
E 728 734 2
E 729 731 1
E 729 738 3
E 730 736 2
E 730 961 55
E 731 742 3
E 732 763 10
E 733 755 6
E 734 737 1
E 734 738 1
E 735 739 1
E 735 797 19
E 736 740 1
E 736 973 55
E 737 741 1
E 737 745 2
E 738 741 1
E 738 742 1
E 739 744 1
E 739 748 2
E 740 749 2
E 740 978 55
E 741 746 1
E 741 750 2
E 742 746 1
E 743 758 5
E 744 747 1
E 744 751 2
E 745 749 1
E 745 750 1
E 746 753 2
E 746 760 5
E 747 754 2
E 747 764 6
E 748 751 1
E 748 775 10
E 749 752 1
E 749 987 55
E 750 752 1
E 750 753 1
E 751 754 1
E 751 778 10
E 752 756 1
E 752 995 55
E 753 756 1
E 753 765 5
E 754 769 6
E 754 781 10
E 755 767 5
E 755 770 6
E 756 1003 55
E 757 758 1
E 757 759 1
E 758 762 2
E 760 765 2
E 760 773 5
E 761 763 1
E 761 780 7
E 762 766 1
E 762 771 3
E 763 783 7
E 763 784 7
E 764 768 2
E 764 769 2
E 765 779 5
E 766 774 3
E 767 785 6
E 768 772 1
E 768 806 12
E 769 777 3
E 769 801 10
E 770 785 5
E 770 800 9
E 771 773 1
E 771 774 1
E 772 776 2
E 772 777 2
E 773 779 2
E 775 778 1
E 775 796 6
E 776 780 1
E 777 810 10
E 778 781 1
E 778 799 6
E 779 782 1
E 780 784 1
E 780 789 2
E 781 801 6
E 781 802 6
E 782 786 1
E 782 1052 55
E 783 787 1
E 783 788 1
E 784 793 2
E 784 805 7
E 785 816 9
E 786 1059 55
E 787 790 1
E 787 791 1
E 788 791 1
E 788 792 1
E 789 793 1
E 790 794 1
E 790 804 5
E 791 794 1
E 791 795 1
E 792 795 1
E 792 805 5
E 793 815 7
E 793 825 10
E 794 798 1
E 794 807 5
E 795 798 1
E 795 808 5
E 796 799 1
E 797 828 10
E 798 812 5
E 798 813 5
E 799 802 1
E 800 803 1
E 800 816 5
E 801 806 2
E 803 811 3
E 803 821 5
E 804 807 1
E 804 823 5
E 805 808 1
E 805 809 1
E 806 810 1
E 806 827 6
E 807 812 1
E 808 813 1
E 808 814 1
E 809 814 1
E 809 815 1
E 810 820 2
E 811 829 5
E 811 834 6
E 812 830 5
E 812 831 5
E 813 817 1
E 813 818 1
E 814 818 1
E 814 819 1
E 815 819 1
E 816 821 1
E 817 824 2
E 818 822 1
E 818 835 5
E 819 822 1
E 820 839 6
E 821 829 3
E 822 838 5
E 823 863 10
E 824 831 2
E 825 849 6
E 826 832 2
E 826 865 10
E 827 832 1
E 828 833 1
E 829 856 6
E 829 1072 45
E 830 852 5
E 831 835 1
E 831 852 5
E 832 836 1
E 832 873 10
E 833 837 1
E 834 856 5
E 834 859 6
E 835 838 1
E 836 844 2
E 836 877 10
E 837 840 1
E 837 841 1
E 838 860 5
E 839 843 1
E 839 844 1
E 840 845 1
E 840 846 1
E 841 846 1
E 841 847 1
E 842 847 1
E 842 855 3
E 843 849 1
E 844 890 10
E 845 850 1
E 845 869 6
E 846 850 1
E 846 851 1
E 847 851 1
E 847 858 3
E 848 857 2
E 848 892 10
E 849 853 1
E 849 876 7
E 850 854 1
E 850 874 6
E 851 854 1
E 851 861 3
E 852 881 7
E 853 883 7
E 853 900 10
E 854 866 3
E 854 879 6
E 855 858 1
E 857 904 10
E 858 861 1
E 858 862 1
E 860 893 7
E 861 866 1
E 861 867 1
E 862 867 1
E 862 871 2
E 863 868 1
E 863 892 6
E 864 872 2
E 864 895 6
E 865 869 1
E 865 873 2
E 866 870 1
E 866 898 6
E 867 870 1
E 868 899 6
E 869 874 1
E 869 878 2
E 870 903 6
E 872 908 6
E 873 877 1
E 873 878 1
E 874 879 1
E 874 885 2
E 875 880 1
E 876 882 1
E 876 883 1
E 877 884 1
E 877 890 2
E 878 884 1
E 878 885 1
E 879 898 3
E 880 886 1
E 881 887 1
E 882 888 1
E 882 889 1
E 883 889 1
E 883 945 10
E 884 891 1
E 884 897 2
E 885 891 1
E 886 920 5
E 886 921 5
E 887 893 1
E 887 906 3
E 888 895 1
E 889 956 10
E 890 896 1
E 890 897 1
E 891 902 2
E 892 899 1
E 892 904 2
E 893 914 3
E 893 964 10
E 894 907 2
E 894 925 4
E 895 908 2
E 896 900 1
E 896 901 1
E 897 901 1
E 897 902 1
E 898 903 1
E 899 905 1
E 899 913 2
E 900 909 1
E 900 945 7
E 901 909 1
E 901 910 1
E 902 910 1
E 902 911 1
E 903 912 1
E 903 918 2
E 904 913 1
E 905 923 2
E 905 938 5
E 906 914 1
E 906 943 6
E 907 915 1
E 907 939 5
E 908 925 2
E 909 916 1
E 909 957 7
E 910 916 1
E 910 917 1
E 911 917 1
E 911 932 3
E 912 919 1
E 912 927 2
E 913 922 1
E 913 923 1
E 914 953 6
E 915 924 1
E 915 944 5
E 916 976 9
E 917 935 3
E 918 926 1
E 918 927 1
E 919 934 2
E 919 981 10
E 920 928 1
E 920 949 5
E 921 949 5
E 921 950 5
E 922 929 1
E 923 929 1
E 923 952 5
E 924 930 1
E 924 955 5
E 925 931 1
E 925 954 5
E 926 933 1
E 926 936 2
E 927 933 1
E 927 934 1
E 928 1099 43
E 929 962 5
E 930 954 4
E 930 974 7
E 931 939 2
E 931 989 10
E 932 935 1
E 932 936 1
E 933 937 1
E 933 941 2
E 934 937 1
E 934 991 10
E 935 940 1
E 936 940 1
E 936 941 1
E 937 948 2
E 937 1000 10
E 938 943 1
E 938 952 2
E 939 944 1
E 939 1004 10
E 940 946 1
E 940 947 1
E 941 947 1
E 941 948 1
E 942 950 1
E 942 951 1
E 943 953 1
E 943 963 2
E 944 955 1
E 944 1010 10
E 945 956 1
E 945 957 1
E 946 958 1
E 946 1006 9
E 947 958 1
E 947 959 1
E 948 959 1
E 948 1015 10
E 949 982 5
E 950 960 1
E 950 982 5
E 951 960 1
E 951 961 1
E 952 962 1
E 952 963 1
E 953 970 2
E 953 1017 10
E 954 965 1
E 954 996 7
E 955 965 1
E 955 1019 10
E 956 966 1
E 957 966 1
E 957 972 2
E 958 967 1
E 958 999 7
E 959 967 1
E 960 968 1
E 960 986 5
E 961 968 1
E 961 973 2
E 962 969 1
E 963 969 1
E 963 970 1
E 964 974 2
E 965 1026 10
E 966 971 1
E 966 977 2
E 967 1008 7
E 967 1029 10
E 968 993 5
E 970 1031 10
E 971 975 1
E 971 976 1
E 972 977 1
E 972 984 3
E 973 978 1
E 974 988 3
E 974 996 4
E 975 983 2
E 976 980 1
E 977 980 1
E 977 990 3
E 978 987 2
E 979 989 2
E 980 983 1
E 980 998 3
E 981 991 2
E 982 985 1
E 982 986 1
E 983 997 2
E 983 1005 3
E 984 990 1
E 984 999 2
E 985 992 1
E 985 1111 43
E 986 992 1
E 986 993 1
E 987 994 1
E 987 995 1
E 988 1018 4
E 989 1004 2
E 990 998 1
E 990 1007 2
E 991 1000 1
E 991 1113 43
E 992 1001 1
E 992 1115 43
E 993 1001 1
E 994 1002 1
E 994 1030 5
E 995 1002 1
E 995 1003 1
E 996 1018 3
E 997 1021 3
E 997 1028 4
E 998 1005 1
E 998 1006 1
E 999 1007 1
E 999 1008 1
E 1000 1015 2
E 1000 1118 43
E 1001 1016 2
E 1001 1121 43
E 1002 1009 1
E 1002 1034 5
E 1003 1009 1
E 1004 1010 1
E 1004 1011 1
E 1005 1012 1
E 1005 1021 2
E 1006 1012 1
E 1006 1013 1
E 1007 1013 1
E 1007 1014 1
E 1008 1014 1
E 1008 1056 10
E 1009 1039 5
E 1009 1040 5
E 1010 1019 1
E 1010 1020 1
E 1011 1020 1
E 1011 1028 2
E 1012 1022 1
E 1013 1022 1
E 1014 1064 10
E 1015 1023 1
E 1016 1024 1
E 1016 1160 57
E 1017 1031 2
E 1018 1025 1
E 1018 1045 6
E 1019 1026 1
E 1019 1027 1
E 1020 1027 1
E 1020 1032 2
E 1021 1041 4
E 1023 1048 6
E 1023 1065 9
E 1024 1033 2
E 1024 1162 57
E 1025 1049 6
E 1025 1069 10
E 1027 1036 2
E 1027 1062 8
E 1028 1032 1
E 1028 1041 3
E 1029 1056 7
E 1030 1033 1
E 1030 1034 1
E 1031 1035 1
E 1032 1036 1
E 1032 1044 3
E 1033 1038 1
E 1033 1132 43
E 1034 1038 1
E 1034 1039 1
E 1035 1043 2
E 1036 1046 3
E 1037 1051 4
E 1038 1042 1
E 1038 1134 43
E 1039 1042 1
E 1039 1057 5
E 1040 1057 5
E 1040 1058 5
E 1041 1044 1
E 1041 1047 2
E 1043 1060 4
E 1044 1046 1
E 1044 1050 2
E 1045 1049 1
E 1045 1053 2
E 1046 1054 2
E 1047 1050 1
E 1047 1051 1
E 1048 1071 5
E 1048 1079 9
E 1049 1061 2
E 1049 1082 10
E 1050 1054 1
E 1050 1055 1
E 1051 1055 1
E 1051 1083 10
E 1052 1058 1
E 1052 1059 1
E 1053 1060 1
E 1053 1061 1
E 1054 1063 1
E 1054 1080 8
E 1055 1063 1
E 1055 1085 10
E 1056 1064 1
E 1056 1065 1
E 1057 1076 5
E 1058 1076 5
E 1060 1066 1
E 1060 1067 1
E 1061 1067 1
E 1061 1087 10
E 1062 1080 7
E 1063 1088 10
E 1064 1068 1
E 1065 1068 1
E 1065 1079 6
E 1068 1070 1
E 1068 1081 6
E 1069 1082 6
E 1070 1073 1
E 1071 1084 6
E 1071 1091 9
E 1072 1074 1
E 1072 1100 18
E 1073 1077 2
E 1074 1075 1
E 1074 1103 18
E 1075 1089 6
E 1075 1104 18
E 1076 1078 1
E 1077 1086 4
E 1078 1205 57
E 1079 1081 1
E 1079 1091 5
E 1081 1092 5
E 1081 1093 8
E 1082 1087 2
E 1083 1085 1
E 1083 1086 1
E 1084 1094 7
E 1084 1097 9
E 1085 1088 1
E 1086 1090 2
E 1086 1093 6
E 1088 1090 1
E 1089 1094 5
E 1089 1110 18
E 1090 1096 6
E 1091 1092 1
E 1091 1097 6
E 1092 1098 6
E 1094 1095 1
E 1094 1102 6
E 1095 1105 8
E 1097 1098 1
E 1097 1105 7
E 1098 1106 7
E 1098 1107 8
E 1099 1100 1
E 1099 1111 10
E 1100 1103 1
E 1100 1114 10
E 1102 1112 9
E 1102 1122 11
E 1103 1104 1
E 1103 1119 10
E 1104 1110 6
E 1104 1123 10
E 1105 1106 1
E 1105 1112 6
E 1106 1108 1
E 1106 1117 6
E 1107 1126 7
E 1108 1116 5
E 1109 1131 7
E 1110 1113 2
E 1110 1136 10
E 1111 1114 1
E 1111 1115 1
E 1112 1117 1
E 1112 1147 11
E 1113 1118 1
E 1113 1144 10
E 1114 1119 1
E 1114 1120 1
E 1115 1120 1
E 1115 1121 1
E 1116 1126 2
E 1117 1150 11
E 1118 1127 2
E 1118 1148 10
E 1119 1123 1
E 1119 1124 1
E 1120 1124 1
E 1120 1125 1
E 1121 1125 1
E 1121 1132 5
E 1122 1127 1
E 1122 1147 9
E 1123 1128 1
E 1123 1136 6
E 1124 1128 1
E 1124 1129 1
E 1125 1129 1
E 1125 1133 5
E 1127 1135 5
E 1128 1130 1
E 1128 1140 6
E 1129 1130 1
E 1129 1137 5
E 1130 1141 5
E 1130 1145 6
E 1132 1133 1
E 1132 1134 1
E 1133 1137 1
E 1133 1138 1
E 1134 1138 1
E 1135 1139 1
E 1136 1140 1
E 1136 1144 2
E 1137 1141 1
E 1137 1142 1
E 1138 1142 1
E 1139 1154 5
E 1140 1145 1
E 1140 1149 2
E 1141 1146 1
E 1141 1166 11
E 1142 1146 1
E 1144 1148 1
E 1144 1149 1
E 1145 1152 2
E 1146 1170 11
E 1147 1150 1
E 1148 1151 1
E 1149 1151 1
E 1149 1152 1
E 1151 1155 2
E 1152 1157 3
E 1153 1163 5
E 1154 1156 1
E 1154 1173 8
E 1155 1156 1
E 1155 1157 1
E 1156 1159 1
E 1156 1177 8
E 1157 1159 1
E 1157 1160 2
E 1158 1167 5
E 1159 1161 2
E 1159 1181 8
E 1160 1161 1
E 1160 1162 1
E 1161 1164 1
E 1161 1185 8
E 1162 1164 1
E 1162 1166 2
E 1163 1165 1
E 1163 1168 2
E 1164 1169 2
E 1164 1187 8
E 1165 1167 1
E 1165 1172 2
E 1166 1169 1
E 1166 1170 1
E 1167 1171 1
E 1167 1175 2
E 1168 1172 1
E 1169 1174 1
E 1169 1194 8
E 1170 1174 1
E 1172 1175 1
E 1173 1176 1
E 1173 1177 1
E 1174 1178 1
E 1174 1197 8
E 1176 1179 1
E 1176 1180 1
E 1177 1180 1
E 1177 1181 1
E 1178 1191 5
E 1178 1201 8
E 1179 1182 1
E 1179 1192 5
E 1180 1182 1
E 1180 1183 1
E 1181 1183 1
E 1181 1185 2
E 1182 1184 1
E 1182 1195 5
E 1183 1184 1
E 1183 1186 2
E 1184 1189 2
E 1184 1198 5
E 1185 1186 1
E 1185 1187 1
E 1186 1189 1
E 1186 1190 1
E 1187 1190 1
E 1187 1194 2
E 1188 1191 1
E 1188 1205 5
E 1189 1193 1
E 1189 1208 5
E 1190 1193 1
E 1190 1196 2
E 1192 1195 1
E 1192 1210 5
E 1193 1199 2
E 1193 1213 5
E 1194 1196 1
E 1194 1197 1
E 1195 1198 1
E 1195 1202 2
E 1196 1199 1
E 1196 1200 1
E 1197 1200 1
E 1197 1201 1
E 1198 1207 2
E 1198 1208 2
E 1199 1203 1
E 1199 1216 5
E 1200 1203 1
E 1200 1204 1
E 1201 1204 1
E 1202 1206 1
E 1203 1209 1
E 1203 1217 5
E 1204 1209 1
E 1206 1211 1
E 1207 1212 1
E 1208 1213 1
E 1208 1218 5
E 1209 1220 5
E 1210 1231 10
E 1212 1214 1
E 1213 1216 2
E 1213 1221 5
E 1214 1215 1
E 1215 1218 2
E 1216 1217 1
E 1216 1219 2
E 1217 1220 1
E 1217 1223 2
E 1218 1221 1
E 1219 1222 1
E 1220 1230 5
E 1221 1227 2
E 1222 1225 1
E 1223 1226 1
E 1224 1229 2
E 1224 1233 10
E 1225 1227 1
E 1226 1228 1
E 1229 1235 10
E 1230 1239 10
E 1231 1232 1
E 1231 1233 6
E 1232 1234 6
E 1233 1234 1
E 1233 1235 2
E 1234 1236 1
E 1234 1238 2
E 1235 1238 1
E 1236 1241 2
E 1236 1243 5
E 1237 1239 1
E 1237 1244 6
E 1238 1240 1
E 1238 1241 1
E 1239 1246 6
E 1240 1242 1
E 1241 1242 1
E 1241 1245 5
E 1242 1247 5
E 1243 1244 1
E 1243 1245 2
E 1244 1246 1
E 1244 1248 2
E 1245 1247 1
E 1245 1248 1
E 1246 1250 2
E 1246 1251 10
E 1247 1249 1
E 1248 1249 1
E 1248 1250 1
E 1250 1252 10
E 1251 1252 2
E 1 1253 1000000
E 2 1253 1000000
E 3 1253 1000000
E 4 1254 1000000
E 5 1254 1000000
E 6 1254 1000000
E 7 1254 1000000
E 8 1254 1000000
E 9 1255 1000000
E 10 1255 1000000
E 11 1255 1000000
E 12 1255 1000000
E 13 1255 1000000
E 14 1255 1000000
E 15 1256 1000000
E 16 1256 1000000
E 17 1256 1000000
E 18 1256 1000000
E 19 1256 1000000
E 20 1257 1000000
E 21 1257 1000000
E 22 1258 1000000
E 23 1258 1000000
E 24 1259 1000000
E 25 1260 1000000
E 26 1261 1000000
E 27 1262 1000000
E 28 1263 1000000
E 29 1263 1000000
E 30 1264 1000000
E 31 1264 1000000
E 32 1265 1000000
E 33 1265 1000000
E 34 1265 1000000
E 35 1265 1000000
E 36 1265 1000000
E 37 1265 1000000
E 38 1266 1000000
E 39 1266 1000000
E 40 1266 1000000
E 41 1266 1000000
E 42 1266 1000000
E 43 1266 1000000
E 44 1267 1000000
E 45 1267 1000000
E 46 1267 1000000
E 47 1267 1000000
E 48 1267 1000000
E 49 1268 1000000
E 50 1268 1000000
E 51 1269 1000000
E 52 1269 1000000
E 53 1270 1000000
E 54 1270 1000000
E 55 1270 1000000
E 56 1271 1000000
E 57 1271 1000000
E 58 1272 1000000
E 59 1273 1000000
E 60 1274 1000000
E 61 1275 1000000
E 62 1276 1000000
E 63 1276 1000000
E 64 1277 1000000
E 65 1277 1000000
E 66 1277 1000000
E 67 1277 1000000
E 68 1277 1000000
E 69 1277 1000000
E 70 1278 1000000
E 71 1278 1000000
E 72 1278 1000000
E 73 1278 1000000
E 74 1279 1000000
E 75 1279 1000000
E 76 1280 1000000
E 77 1280 1000000
E 78 1280 1000000
E 79 1280 1000000
E 80 1280 1000000
E 81 1280 1000000
E 82 1281 1000000
E 83 1281 1000000
E 84 1281 1000000
E 85 1281 1000000
E 86 1282 1000000
E 87 1282 1000000
E 88 1282 1000000
E 89 1283 1000000
E 90 1283 1000000
E 91 1284 1000000
E 92 1284 1000000
E 93 1285 1000000
E 94 1285 1000000
E 95 1286 1000000
E 96 1286 1000000
E 97 1287 1000000
E 98 1287 1000000
E 99 1288 1000000
E 100 1288 1000000
E 101 1289 1000000
E 102 1289 1000000
E 103 1290 1000000
E 104 1290 1000000
E 105 1291 1000000
E 106 1291 1000000
E 107 1291 1000000
E 108 1291 1000000
E 109 1292 1000000
E 110 1292 1000000
E 111 1293 1000000
E 112 1293 1000000
E 113 1293 1000000
E 114 1293 1000000
E 115 1294 1000000
E 116 1294 1000000
E 117 1295 1000000
E 118 1295 1000000
E 119 1296 1000000
E 120 1296 1000000
E 121 1296 1000000
E 122 1296 1000000
E 123 1297 1000000
E 124 1297 1000000
E 125 1297 1000000
E 126 1298 1000000
E 127 1298 1000000
E 128 1299 1000000
E 129 1299 1000000
E 130 1300 1000000
E 131 1300 1000000
E 132 1301 1000000
E 133 1301 1000000
E 134 1302 1000000
E 135 1302 1000000
E 136 1303 1000000
E 137 1303 1000000
E 138 1303 1000000
E 139 1304 1000000
E 140 1304 1000000
E 141 1304 1000000
E 142 1304 1000000
E 143 1304 1000000
E 144 1304 1000000
E 145 1305 1000000
E 146 1305 1000000
E 147 1305 1000000
E 148 1305 1000000
E 149 1305 1000000
E 150 1305 1000000
E 151 1306 1000000
E 152 1306 1000000
E 153 1307 1000000
E 154 1307 1000000
E 155 1308 1000000
E 156 1309 1000000
E 157 1310 1000000
E 158 1311 1000000
E 159 1312 1000000
E 160 1312 1000000
E 161 1313 1000000
E 162 1313 1000000
E 163 1314 1000000
E 164 1314 1000000
E 165 1314 1000000
E 166 1314 1000000
E 167 1314 1000000
E 168 1315 1000000
E 169 1315 1000000
E 170 1315 1000000
E 171 1315 1000000
E 172 1315 1000000
E 173 1315 1000000
E 174 1316 1000000
E 175 1316 1000000
E 176 1317 1000000
E 177 1317 1000000
E 178 1318 1000000
E 179 1318 1000000
E 180 1319 1000000
E 181 1319 1000000
E 182 1319 1000000
E 183 1320 1000000
E 184 1320 1000000
E 185 1321 1000000
E 186 1322 1000000
E 187 1323 1000000
E 188 1324 1000000
E 189 1325 1000000
E 190 1325 1000000
E 191 1325 1000000
E 192 1325 1000000
E 193 1326 1000000
E 194 1326 1000000
E 195 1326 1000000
E 196 1326 1000000
E 197 1327 1000000
E 198 1327 1000000
E 199 1327 1000000
E 200 1327 1000000
E 201 1327 1000000
E 202 1327 1000000
E 203 1328 1000000
E 204 1328 1000000
E 205 1328 1000000
E 206 1328 1000000
E 207 1329 1000000
E 208 1329 1000000
E 209 1330 1000000
E 210 1330 1000000
E 211 1331 1000000
E 212 1331 1000000
E 213 1332 1000000
E 214 1332 1000000
E 215 1333 1000000
E 216 1333 1000000
E 217 1334 1000000
E 218 1334 1000000
E 219 1334 1000000
E 220 1334 1000000
E 221 1334 1000000
E 222 1335 1000000
E 223 1335 1000000
E 224 1336 1000000
E 225 1336 1000000
E 226 1336 1000000
E 227 1336 1000000
E 228 1337 1000000
E 229 1337 1000000
E 230 1338 1000000
E 231 1338 1000000
E 232 1339 1000000
E 233 1339 1000000
E 234 1340 1000000
E 235 1340 1000000
E 236 1341 1000000
E 237 1341 1000000
E 238 1342 1000000
E 239 1342 1000000
E 240 1343 1000000
E 241 1264 1000000
E 242 1264 1000000
E 243 1264 1000000
E 244 1264 1000000
E 245 1264 1000000
E 246 1264 1000000
E 247 1264 1000000
E 248 1276 1000000
E 249 1276 1000000
E 250 1276 1000000
E 251 1276 1000000
E 252 1276 1000000
E 253 1276 1000000
E 254 1276 1000000
E 255 1277 1000000
E 256 1279 1000000
E 257 1279 1000000
E 258 1279 1000000
E 259 1279 1000000
E 260 1280 1000000
E 261 1325 1000000
E 262 1326 1000000
E 263 1327 1000000
E 264 1334 1000000
E 265 1335 1000000
E 266 1336 1000000
END

SECTION Terminals
Terminals 91
T 1253
T 1254
T 1255
T 1256
T 1257
T 1258
T 1259
T 1260
T 1261
T 1262
T 1263
T 1264
T 1265
T 1266
T 1267
T 1268
T 1269
T 1270
T 1271
T 1272
T 1273
T 1274
T 1275
T 1276
T 1277
T 1278
T 1279
T 1280
T 1281
T 1282
T 1283
T 1284
T 1285
T 1286
T 1287
T 1288
T 1289
T 1290
T 1291
T 1292
T 1293
T 1294
T 1295
T 1296
T 1297
T 1298
T 1299
T 1300
T 1301
T 1302
T 1303
T 1304
T 1305
T 1306
T 1307
T 1308
T 1309
T 1310
T 1311
T 1312
T 1313
T 1314
T 1315
T 1316
T 1317
T 1318
T 1319
T 1320
T 1321
T 1322
T 1323
T 1324
T 1325
T 1326
T 1327
T 1328
T 1329
T 1330
T 1331
T 1332
T 1333
T 1334
T 1335
T 1336
T 1337
T 1338
T 1339
T 1340
T 1341
T 1342
T 1343
END

EOF
